row=10;
column=10;
Board=[|0,0,0,0,0,0,0,0,0,0|0,0,0,0,0,0,0,0,0,0|0,0,0,0,0,0,1,0,0,0|0,0,0,0,0,0,0,0,0,0|0,0,0,0,0,0,0,0,0,0|0,0,0,0,5,0,0,0,0,0|1,0,0,0,0,0,0,0,0,5|0,0,0,0,0,0,0,0,0,0|0,0,3,0,0,0,0,0,0,0|0,0,0,0,0,0,0,0,0,0|];
right = [1,2,2,1,0,3,3,1,5,2];
bottom = [6,0,3,1,3,1,2,0,3,1];
